Route #1: 95 13 79 43 20 39 100 51 56 17 82 27 85
Route #2: 15 4 21 28 24 90 71 78 87 62 47 55
Route #3: 66 48 52 86 69 59 10 84 16 65 53
Route #4: 11 37 30 2 91 88 61
Route #5: 93 9 33 57 74 54 97 49 45 64 81
Route #6: 63 7 22 32 58 96 70 5 3 38 6
Route #7: 34 25 89 68 98 1 44 77
Route #8: 12 92 50 41 46 75 60
Route #9: 72 26 40 29 99 19 67 35 23 18 73
Route #10: 42 14 8 83 94 31 36
Route #11: 76 80
Cost 15053
